objective value:                                  -76
t_x5                                                1 	(obj:-100)
t_y5_272                                            1 	(obj:1)
t_y5_124                                            1 	(obj:1)
t_y5_207                                            1 	(obj:1)
t_y5_342                                            1 	(obj:1)
t_y5_234                                            1 	(obj:1)
t_y5_123                                            1 	(obj:1)
t_y5_94                                             1 	(obj:1)
t_y5_121                                            1 	(obj:1)
t_y5_204                                            1 	(obj:1)
t_y5_241                                            1 	(obj:1)
t_y5_292                                            1 	(obj:1)
t_y5_166                                            1 	(obj:1)
t_y5_154                                            1 	(obj:1)
t_y5_251                                            1 	(obj:1)
t_y5_162                                            1 	(obj:1)
t_y5_161                                            1 	(obj:1)
t_y5_345                                            1 	(obj:1)
t_y5_106                                            1 	(obj:1)
t_y5_278                                            1 	(obj:1)
t_y5_58                                             1 	(obj:1)
t_y5_321                                            1 	(obj:1)
t_y5_387                                            1 	(obj:1)
t_y5_487                                            1 	(obj:1)
t_y5_385                                            1 	(obj:1)
